(set-info :smt-lib-version 2.6)
(set-logic QF_SLIA)
(set-info :source |
Generated by: Wei-Cheng Wu
Generated on: 2019-07-28
Generator: Py-Conbyte
Application: Concolic execution of Python code
Target solver: CVC4, Z3, Z3str3, Z3-Trau
|)
(set-info :license "https://creativecommons.org/licenses/by/4.0/")
(set-info :category "industrial")
(set-info :status unknown)
(declare-fun a () String)
(declare-fun b () String)


(assert (not ( >= ( + ( str.len a  ) (- 1)  ) 0  )))
(assert (str.in_re a (re.+ (re.range "0" "1"))))
(assert (str.in_re b (re.+ (re.range "0" "1"))))


(check-sat)

(exit)
